Optimal - objective value 6.00000000
      0 C0000000               0                       0
      1 C0000001               0                       0
      2 C0000002               1                       0
      3 C0000003               1                       0
      0 X0000000               1                       2
      1 X0000001               0                       6
      2 X0000002               1                       1
      3 X0000003               0                       5
      4 X0000004               1                       3
